(declare-sort Loc 0)
(declare-const f2743_0_remove_FieldAccess Loc)
(declare-const f2759_0_remove_FieldAccess Loc)
(declare-const f2746_0_remove_FieldAccess Loc)
(declare-const f2763_0_remove_FieldAccess Loc)
(declare-const f2749_0_remove_FieldAccess Loc)
(declare-const f2767_0_remove_FieldAccess Loc)
(declare-const f2751_0_remove_FieldAccess Loc)
(declare-const f2770_0_remove_FieldAccess Loc)
(declare-const f411_0_createList_Load Loc)
(declare-const f822_0_createList_Load Loc)
(declare-const f1_0_main_Load Loc)
(declare-const f2148_0_random_ArrayAccess Loc)
(declare-const f423_0_createList_Return Loc)
(declare-const f2487_0_entry_LE Loc)
(declare-const f2655_0_entry_GT Loc)
(declare-const f2682_0_remove_FieldAccess Loc)
(declare-const f2960_0_remove_FieldAccess Loc)
(declare-const f3064_0_remove_FieldAccess Loc)
(declare-const f3154_0_remove_FieldAccess Loc)
(declare-const f2122_0_createList_LE Loc)
(declare-const __init Loc)
(assert (distinct f2743_0_remove_FieldAccess f2759_0_remove_FieldAccess f2746_0_remove_FieldAccess f2763_0_remove_FieldAccess f2749_0_remove_FieldAccess f2767_0_remove_FieldAccess f2751_0_remove_FieldAccess f2770_0_remove_FieldAccess f411_0_createList_Load f822_0_createList_Load f1_0_main_Load f2148_0_random_ArrayAccess f423_0_createList_Return f2487_0_entry_LE f2655_0_entry_GT f2682_0_remove_FieldAccess f2960_0_remove_FieldAccess f3064_0_remove_FieldAccess f3154_0_remove_FieldAccess f2122_0_createList_LE __init ))

(define-fun cfg_init ( (pc Loc) (src Loc) (rel Bool) ) Bool
  (and (= pc src) rel))

(define-fun cfg_trans2 ( (pc Loc) (src Loc)
                         (pc1 Loc) (dst Loc)
                         (rel Bool) ) Bool
  (and (= pc src) (= pc1 dst) rel))

(define-fun cfg_trans3 ( (pc Loc) (exit Loc)
                         (pc1 Loc) (call Loc)
                         (pc2 Loc) (return Loc)
                         (rel Bool) ) Bool
  (and (= pc exit) (= pc1 call) (= pc2 return) rel))

(define-fun init_main ( (pc Loc) (arg1 Int) (arg2 Int) (arg3 Int) (arg4 Int) (arg5 Int) (arg6 Int) (arg7 Int) (arg8 Int) (arg9 Int) (arg10 Int) (arg11 Int) (arg12 Int) (arg13 Int) (arg14 Int) (arg15 Int) (arg16 Int) (arg17 Int) (arg18 Int) (arg19 Int) (arg20 Int) (arg21 Int) (arg22 Int) (arg23 Int) (arg24 Int) (arg25 Int) (arg26 Int) (arg27 Int) (arg28 Int) (arg29 Int) ) Bool
  (cfg_init pc __init true))

(define-fun next_main (
                 (pc Loc) (arg1 Int) (arg2 Int) (arg3 Int) (arg4 Int) (arg5 Int) (arg6 Int) (arg7 Int) (arg8 Int) (arg9 Int) (arg10 Int) (arg11 Int) (arg12 Int) (arg13 Int) (arg14 Int) (arg15 Int) (arg16 Int) (arg17 Int) (arg18 Int) (arg19 Int) (arg20 Int) (arg21 Int) (arg22 Int) (arg23 Int) (arg24 Int) (arg25 Int) (arg26 Int) (arg27 Int) (arg28 Int) (arg29 Int)
                 (pc1 Loc) (arg1P Int) (arg2P Int) (arg3P Int) (arg4P Int) (arg5P Int) (arg6P Int) (arg7P Int) (arg8P Int) (arg9P Int) (arg10P Int) (arg11P Int) (arg12P Int) (arg13P Int) (arg14P Int) (arg15P Int) (arg16P Int) (arg17P Int) (arg18P Int) (arg19P Int) (arg20P Int) (arg21P Int) (arg22P Int) (arg23P Int) (arg24P Int) (arg25P Int) (arg26P Int) (arg27P Int) (arg28P Int) (arg29P Int)
             ) Bool
  (or
    (cfg_trans2 pc f2743_0_remove_FieldAccess pc1 f2759_0_remove_FieldAccess (and (and (and (and (and (and (and (and (and (and (and (and (and (and (and (and (and (and (and (and (and (and (and (and (and (and (and (and (and (and (and (and (and (and (and (and (and (and (and (and (and (<= arg1P arg1) (<= (+ arg1P 6) arg2)) (<= (+ arg1P 4) arg3)) (>= arg4 arg1P)) (>= arg5 (+ arg1P 2))) (<= arg3P arg3)) (>= arg4 arg4P)) (>= arg5 arg5P)) (> arg1 0)) (> arg2 6)) (> arg3 4)) (> arg4 0)) (> arg5 2)) (> arg1P 0)) (> arg2P 6)) (> arg3P 4)) (> arg4P 0)) (> arg5P 2)) (<= (+ arg9 5) arg2)) (>= arg2 (+ arg10 7))) (>= arg2 (+ arg11 7))) (>= arg2 (+ arg12 3))) (>= arg3 (+ arg13 5))) (>= arg3 (+ arg14 4))) (>= arg3 (+ arg15 6))) (>= arg3 (+ arg16 6))) (>= arg3 (+ arg17 6))) (>= arg3 (+ arg18 2))) (>= arg3 (+ arg19 4))) (>= arg3 (+ arg20 4))) (>= arg3 (+ arg21 4))) (>= arg4 (+ arg22 2))) (>= arg4 (+ arg23 2))) (>= arg4 (+ arg24 2))) (>= arg5 (+ arg25 3))) (>= arg5 (+ arg26 2))) (>= arg5 (+ arg27 4))) (>= arg5 (+ arg29 4))) (>= arg5 (+ arg28 4))) (= arg6 arg6P)) (= arg7 arg7P)) (= arg8 arg8P)))
    (cfg_trans2 pc f2746_0_remove_FieldAccess pc1 f2763_0_remove_FieldAccess (and (and (and (and (and (and (and (and (and (and (and (and (and (and (and (and (and (and (and (and (and (and (and (and (and (and (and (and (and (and (and (and (and (and (and (and (and (and (and (and (and (and (<= arg1P arg1) (<= (+ arg1P 6) arg2)) (<= (+ arg1P 4) arg3)) (<= arg1P arg4)) (<= (+ arg1P 4) arg5)) (<= arg3P arg3)) (<= arg4P arg4)) (<= arg5P arg5)) (> arg1 0)) (> arg2 6)) (> arg3 4)) (> arg4 0)) (> arg5 4)) (> arg1P 0)) (> arg2P 6)) (> arg3P 4)) (> arg4P 0)) (> arg5P 4)) (<= (+ arg8 5) arg2)) (<= (+ arg9 7) arg2)) (<= (+ arg10 7) arg2)) (<= (+ arg11 3) arg2)) (<= (+ arg12 4) arg3)) (<= (+ arg21 6) arg3)) (<= (+ arg22 6) arg3)) (<= (+ arg23 6) arg3)) (<= (+ arg13 2) arg3)) (<= (+ arg14 4) arg3)) (<= (+ arg15 4) arg3)) (<= (+ arg16 4) arg3)) (<= (+ arg17 2) arg4)) (<= (+ arg18 2) arg4)) (<= (+ arg19 2) arg4)) (<= (+ arg20 4) arg5)) (<= (+ arg21 6) arg5)) (<= (+ arg22 6) arg5)) (<= (+ arg23 6) arg5)) (<= (+ arg24 2) arg5)) (<= (+ arg25 4) arg5)) (<= (+ arg27 4) arg5)) (<= (+ arg26 4) arg5)) (= arg6 arg6P)) (= arg7 arg7P)))
    (cfg_trans2 pc f2749_0_remove_FieldAccess pc1 f2767_0_remove_FieldAccess (and (and (and (and (and (and (and (and (and (and (and (and (and (and (and (and (and (and (and (and (and (and (and (and (and (and (and (and (and (and (and (and (and (and (and (and (and (and (and (and (and (<= arg1P arg1) (<= (+ arg1P 7) arg2)) (<= (+ arg1P 4) arg3)) (<= arg1P arg4)) (<= (+ arg1P 2) arg5)) (<= arg2P arg2)) (<= arg3P arg3)) (>= arg4 arg4P)) (>= arg5 arg5P)) (> arg1 0)) (> arg2 7)) (> arg3 4)) (> arg4 0)) (> arg5 2)) (> arg1P 0)) (> arg2P 7)) (> arg3P 4)) (> arg4P 0)) (> arg5P 2)) (<= (+ arg8 5) arg2)) (<= (+ arg9 8) arg2)) (<= (+ arg10 9) arg2)) (<= (+ arg11 9) arg2)) (<= (+ arg12 9) arg2)) (<= (+ arg13 3) arg2)) (<= (+ arg14 5) arg3)) (<= (+ arg15 6) arg3)) (<= (+ arg16 6) arg3)) (<= (+ arg17 6) arg3)) (<= (+ arg18 2) arg3)) (<= (+ arg19 4) arg3)) (<= (+ arg20 4) arg3)) (<= (+ arg21 4) arg3)) (<= (+ arg22 2) arg4)) (<= (+ arg23 2) arg4)) (<= (+ arg24 2) arg4)) (<= (+ arg25 3) arg5)) (<= (+ arg26 4) arg5)) (<= (+ arg28 4) arg5)) (<= (+ arg27 4) arg5)) (= arg6 arg6P)) (= arg7 arg7P)))
    (cfg_trans2 pc f2751_0_remove_FieldAccess pc1 f2770_0_remove_FieldAccess (and (and (and (and (and (and (and (and (and (and (and (and (and (and (and (and (and (and (and (and (and (and (and (and (and (and (and (and (and (and (and (and (and (and (and (and (and (and (and (and (and (and (and (and (<= arg1P arg1) (<= (+ arg1P 9) arg2)) (<= (+ arg1P 4) arg3)) (<= arg1P arg4)) (<= (+ arg1P 4) arg5)) (<= arg2P arg2)) (<= arg3P arg3)) (<= arg4P arg4)) (<= arg5P arg5)) (> arg1 0)) (> arg2 9)) (> arg3 4)) (> arg4 0)) (> arg5 4)) (> arg1P 0)) (> arg2P 9)) (> arg3P 4)) (> arg4P 0)) (> arg5P 4)) (<= (+ arg6 5) arg2)) (<= (+ arg7 9) arg2)) (<= (+ arg8 11) arg2)) (<= (+ arg9 11) arg2)) (<= (+ arg10 11) arg2)) (<= (+ arg11 9) arg2)) (<= (+ arg12 9) arg2)) (<= (+ arg13 9) arg2)) (<= (+ arg14 3) arg2)) (<= (+ arg23 6) arg3)) (<= (+ arg24 6) arg3)) (<= (+ arg25 6) arg3)) (<= (+ arg15 2) arg3)) (<= (+ arg16 4) arg3)) (<= (+ arg17 4) arg3)) (<= (+ arg18 4) arg3)) (<= (+ arg19 2) arg4)) (<= (+ arg20 2) arg4)) (<= (+ arg21 2) arg4)) (<= (+ arg22 4) arg5)) (<= (+ arg23 6) arg5)) (<= (+ arg24 6) arg5)) (<= (+ arg25 6) arg5)) (<= (+ arg26 4) arg5)) (<= (+ arg28 4) arg5)) (<= (+ arg27 4) arg5)))
    (cfg_trans2 pc f411_0_createList_Load pc1 f822_0_createList_Load (and (and (and (and (and (and (and (and (and (and (and (and (and (and (and (and (and (> arg2 9) (> arg2P 9)) (<= (+ arg6 5) arg2)) (<= (+ arg7 3) arg2)) (= arg1 arg1P)) (= 0 arg3P)) (= 0 arg4P)) (= arg4 arg5P)) (= arg6P arg7P)) (= 0 arg8P)) (= 0 arg9P)) (= 0 arg10P)) (= arg3 arg15P)) (= arg3 arg16P)) (= arg4 arg17P)) (= arg5 arg19P)) (= arg6 arg20P)) (= arg7 arg23P)))
    (cfg_trans2 pc f1_0_main_Load pc1 f2148_0_random_ArrayAccess (exists ((x162 Int)) (and (and (and (and (> x162 (- 1)) (> arg2 0)) (> arg1 0)) (> arg1P 6)) (= arg2 arg4P))))
    (cfg_trans2 pc f423_0_createList_Return pc1 f2148_0_random_ArrayAccess (and (and (and (and (and (and (and (and (and (and (> arg1 0) (> arg2 6)) (> arg1P 6)) (<= (+ arg6 5) arg2)) (<= (+ arg7 7) arg2)) (<= (+ arg9 3) arg2)) (<= (+ arg8 7) arg2)) (= arg3 arg2P)) (= arg4 arg3P)) (= arg6 arg5P)) (= arg9 arg8P)))
    (cfg_trans2 pc f2148_0_random_ArrayAccess pc1 f2487_0_entry_LE (exists ((x177 Int) (x190 Int)) (and (and (and (and (and (and (and (and (and (and (and (and (and (and (and (and (and (and (and (< x177 arg4) (> x177 (- 1))) (> arg4P (- 1))) (<= x190 arg4P)) (< arg4P arg5)) (> arg1 6)) (> arg1P 6)) (> arg2P 1)) (<= (+ arg5 5) arg1)) (<= (+ arg6 7) arg1)) (<= (+ arg8 3) arg1)) (<= (+ arg7 7) arg1)) (= arg5 arg3P)) (= arg3 arg5P)) (= arg2 arg6P)) (= arg3 arg7P)) (= arg3 arg8P)) (= arg3 arg9P)) (= arg5 arg10P)) (= arg8 arg13P))))
    (cfg_trans2 pc f2487_0_entry_LE pc1 f2487_0_entry_LE (exists ((x211 Int)) (and (and (and (and (and (and (and (and (and (and (and (and (and (and (and (and (and (and (and (and (and (and (and (and (and (and (> arg7 0) (> arg5 0)) (> arg9 0)) (> arg5P arg5)) (> arg8 arg5)) (> arg6 0)) (< x211 arg9P)) (< arg7P arg7)) (> arg8 0)) (> x211 (- 1))) (< x211 arg9)) (< x211 arg7P)) (< arg4 arg3)) (> arg1 6)) (> arg2 2)) (> arg1P 6)) (> arg2P 0)) (<= (+ arg10 5) arg1)) (<= (+ arg11 7) arg1)) (<= (+ arg12 7) arg1)) (<= (+ arg13 3) arg1)) (= (- arg3 1) arg3P)) (= arg4 arg4P)) (= arg6 arg6P)) (= arg8 arg8P)) (= arg10 arg10P)) (= arg13 arg13P))))
    (cfg_trans2 pc f2487_0_entry_LE pc1 f2487_0_entry_LE (exists ((x229 Int)) (and (and (and (and (and (and (and (and (and (and (and (and (and (and (and (and (and (and (and (and (and (and (and (< x229 arg6) (> arg6 (- 1))) (< arg7P arg8)) (> arg8 (- 1))) (< arg4 arg3)) (> arg7P 0)) (> x229 0)) (> arg1 6)) (> arg2 1)) (> arg1P 6)) (> arg2P 0)) (<= (+ arg10 5) arg1)) (<= (+ arg11 7) arg1)) (<= (+ arg12 7) arg1)) (<= (+ arg13 3) arg1)) (= arg8 arg9)) (= (- arg3 1) arg3P)) (= arg4 arg4P)) (= 1 arg5P)) (= 0 arg6P)) (= 0 arg8P)) (= 0 arg9P)) (= arg10 arg10P)) (= arg13 arg13P))))
    (cfg_trans2 pc f2487_0_entry_LE pc1 f2487_0_entry_LE (exists ((x247 Int) (x248 Int)) (and (and (and (and (and (and (and (and (and (and (and (and (and (and (and (and (and (and (and (and (and (and (< x247 arg6) (> arg6 (- 1))) (< x248 arg8)) (> arg8 (- 1))) (> x247 0)) (< arg4 arg3)) (> arg1 6)) (> arg2 1)) (> arg1P 6)) (> arg2P 2)) (<= (+ arg10 5) arg1)) (<= (+ arg11 7) arg1)) (<= (+ arg12 7) arg1)) (<= (+ arg13 3) arg1)) (= arg8 arg9)) (= (- arg3 1) arg3P)) (= arg4 arg4P)) (= 1 arg5P)) (= 1 arg7P)) (= 1 arg8P)) (= 1 arg9P)) (= arg10 arg10P)) (= arg13 arg13P))))
    (cfg_trans2 pc f2487_0_entry_LE pc1 f2487_0_entry_LE (exists ((x267 Int)) (and (and (and (and (and (and (and (and (and (and (and (and (and (and (and (and (and (and (and (and (and (< x267 arg6) (> arg6 (- 1))) (< arg7P arg8)) (> arg8 (- 1))) (> arg7P 0)) (< arg4 arg3)) (> arg1 6)) (> arg2 1)) (> arg1P 6)) (> arg2P 0)) (<= (+ arg10 5) arg1)) (<= (+ arg11 7) arg1)) (<= (+ arg12 7) arg1)) (<= (+ arg13 3) arg1)) (= arg8 arg9)) (= (- arg3 1) arg3P)) (= arg4 arg4P)) (= 1 arg5P)) (= 1 arg6P)) (= 0 arg9P)) (= arg10 arg10P)) (= arg13 arg13P))))
    (cfg_trans2 pc f2487_0_entry_LE pc1 f2487_0_entry_LE (exists ((x284 Int) (x285 Int)) (and (and (and (and (and (and (and (and (and (and (and (and (and (and (and (and (and (and (and (and (and (and (and (and (< x284 arg6) (> arg6 (- 1))) (< x285 arg8)) (< arg4 arg3)) (> arg8 (- 1))) (<= (+ arg2P 4) arg1)) (<= (- arg2P 1) arg2)) (> arg1 6)) (> arg2 1)) (> arg1P 6)) (> arg2P 2)) (<= (+ arg10 5) arg1)) (<= (+ arg11 7) arg1)) (<= (+ arg12 7) arg1)) (<= (+ arg13 3) arg1)) (= arg8 arg9)) (= (- arg3 1) arg3P)) (= arg4 arg4P)) (= 1 arg5P)) (= 1 arg6P)) (= 1 arg7P)) (= 1 arg8P)) (= 1 arg9P)) (= arg10 arg10P)) (= arg13 arg13P))))
    (cfg_trans2 pc f2148_0_random_ArrayAccess pc1 f2655_0_entry_GT (exists ((x287 Int) (x297 Int)) (and (and (and (and (and (and (and (and (and (and (and (and (and (and (and (and (< x287 arg4) (> x287 (- 1))) (> arg3P (- 1))) (> x297 arg3P)) (< arg3P arg5)) (> arg1 6)) (> arg1P 1)) (<= (+ arg5 5) arg1)) (<= (+ arg6 7) arg1)) (<= (+ arg8 3) arg1)) (<= (+ arg7 7) arg1)) (= 0 arg2P)) (= arg2 arg4P)) (= arg3 arg5P)) (= arg2 arg6P)) (= arg2 arg7P)) (= arg2 arg8P))))
    (cfg_trans2 pc f2487_0_entry_LE pc1 f2682_0_remove_FieldAccess (exists ((x315 Int) (x316 Int) (x317 Int) (x319 Int) (x318 Int) (x320 Int) (x321 Int)) (and (and (and (and (and (and (and (and (and (and (and (and (and (and (and (and (and (and (and (and (and (and (and (and (and (> arg9 0) (> arg7 0)) (> arg6 0)) (> arg5 0)) (> x315 (- 1))) (< x316 x315)) (< x317 arg7)) (> arg8 0)) (< x319 x318)) (< x320 arg9)) (> x318 (- 1))) (>= arg4 arg3)) (> x321 arg3P)) (> x320 (- 1))) (> x321 (- 1))) (> x320 arg3P)) (> arg1 6)) (> arg2 4)) (> arg1P 7)) (> arg2P 4)) (<= (+ arg10 5) arg1)) (<= (+ arg11 7) arg1)) (<= (+ arg12 7) arg1)) (<= (+ arg13 3) arg1)) (= arg10 arg4P)) (= arg13 arg5P))))
    (cfg_trans2 pc f2487_0_entry_LE pc1 f2682_0_remove_FieldAccess (exists ((x339 Int) (x340 Int) (x341 Int) (x343 Int) (x342 Int) (x344 Int) (x345 Int) (x346 Int)) (and (and (and (and (and (and (and (and (and (and (and (and (and (and (and (and (and (and (and (and (and (and (and (and (and (and (> arg9 0) (> arg7 0)) (> arg6 0)) (> arg5 0)) (> x339 (- 1))) (< x340 x339)) (< x341 arg7)) (> arg8 0)) (< x343 x342)) (< x344 arg9)) (> x342 (- 1))) (>= arg4 arg3)) (> x345 arg3P)) (> x344 (- 1))) (> x344 arg3P)) (> x346 0)) (> x345 (- 1))) (> arg1 6)) (> arg2 4)) (> arg1P 7)) (> arg2P 4)) (<= (+ arg10 5) arg1)) (<= (+ arg11 7) arg1)) (<= (+ arg12 7) arg1)) (<= (+ arg13 3) arg1)) (= arg10 arg4P)) (= arg13 arg5P))))
    (cfg_trans2 pc f2487_0_entry_LE pc1 f2743_0_remove_FieldAccess (exists ((x386 Int) (x387 Int)) (and (and (and (and (and (and (and (and (and (and (and (and (and (and (and (and (and (and (and (and (and (and (and (and (and (and (and (> arg9 0) (> arg7 0)) (> arg6 0)) (> arg5 0)) (< x386 arg7)) (> arg8 0)) (< x387 arg9)) (>= arg4 arg3)) (> x387 (- 1))) (> x387 arg8P)) (> arg8P 0)) (<= (+ arg1P 6) arg1)) (<= (+ arg1P 4) arg2)) (> arg1 6)) (> arg2 4)) (> arg1P 0)) (> arg2P 6)) (> arg3P 4)) (> arg4P 0)) (> arg5P 2)) (<= (+ arg10 5) arg1)) (<= (+ arg11 7) arg1)) (<= (+ arg12 7) arg1)) (<= (+ arg13 3) arg1)) (= arg8 arg6P)) (= arg5 arg7P)) (= arg10 arg9P)) (= arg13 arg12P))))
    (cfg_trans2 pc f2487_0_entry_LE pc1 f2746_0_remove_FieldAccess (exists ((x425 Int) (x426 Int) (x427 Int)) (and (and (and (and (and (and (and (and (and (and (and (and (and (and (and (and (and (and (and (and (and (and (and (and (and (and (> arg9 0) (> arg7 0)) (> arg6 0)) (> arg5 0)) (< x425 arg7)) (> arg8 0)) (< x426 arg9)) (>= arg4 arg3)) (> x426 (- 1))) (< x427 x426)) (<= (+ arg1P 6) arg1)) (<= (+ arg1P 4) arg2)) (> arg1 6)) (> arg2 4)) (> arg1P 0)) (> arg2P 6)) (> arg3P 4)) (> arg4P 0)) (> arg5P 4)) (<= (+ arg10 5) arg1)) (<= (+ arg11 7) arg1)) (<= (+ arg12 7) arg1)) (<= (+ arg13 3) arg1)) (= arg8 arg6P)) (= arg5 arg7P)) (= arg10 arg8P)) (= arg13 arg11P))))
    (cfg_trans2 pc f2682_0_remove_FieldAccess pc1 f2749_0_remove_FieldAccess (and (and (and (and (and (and (and (and (and (and (and (and (and (and (and (and (and (and (and (and (and (and (and (and (and (and (and (and (and (<= (+ arg1P 7) arg1) (> arg3 0)) (<= (+ arg1P 4) arg2)) (<= arg2P arg1)) (<= arg3P arg2)) (> arg1 7)) (> arg2 4)) (> arg1P 0)) (> arg2P 7)) (> arg3P 4)) (> arg4P 0)) (> arg5P 2)) (<= (+ arg4 5) arg1)) (<= (+ arg9P 8) arg1)) (<= (+ arg10P 9) arg1)) (<= (+ arg11P 9) arg1)) (<= (+ arg12P 9) arg1)) (<= (+ arg5 3) arg1)) (<= (+ arg14P 5) arg2)) (<= (+ arg15P 6) arg2)) (<= (+ arg16P 6) arg2)) (<= (+ arg17P 6) arg2)) (<= (+ arg6 2) arg2)) (<= (+ arg19P 4) arg2)) (<= (+ arg21P 4) arg2)) (<= (+ arg20P 4) arg2)) (= arg3 arg7P)) (= arg4 arg8P)) (= arg5 arg13P)) (= arg6 arg18P)))
    (cfg_trans2 pc f2682_0_remove_FieldAccess pc1 f2751_0_remove_FieldAccess (and (and (and (and (and (and (and (and (and (and (and (and (and (and (and (and (and (and (and (and (and (and (and (and (and (and (and (and (and (<= (+ arg1P 9) arg1) (<= (+ arg1P 4) arg2)) (<= arg2P arg1)) (<= arg3P arg2)) (> arg1 9)) (> arg2 4)) (> arg1P 0)) (> arg2P 9)) (> arg3P 4)) (> arg4P 0)) (> arg5P 4)) (<= (+ arg4 5) arg1)) (<= (+ arg7P 9) arg1)) (<= (+ arg8P 11) arg1)) (<= (+ arg9P 11) arg1)) (<= (+ arg10P 11) arg1)) (<= (+ arg11P 9) arg1)) (<= (+ arg12P 9) arg1)) (<= (+ arg13P 9) arg1)) (<= (+ arg5 3) arg1)) (<= (+ arg23P 6) arg2)) (<= (+ arg24P 6) arg2)) (<= (+ arg25P 6) arg2)) (<= (+ arg6 2) arg2)) (<= (+ arg16P 4) arg2)) (<= (+ arg18P 4) arg2)) (<= (+ arg17P 4) arg2)) (= arg4 arg6P)) (= arg5 arg14P)) (= arg6 arg15P)))
    (cfg_trans2 pc f2655_0_entry_GT pc1 f2655_0_entry_GT (exists ((x503 Int)) (and (and (and (and (and (and (and (and (and (and (and (and (and (and (and (and (and (and (> arg7 0) (> arg6 0)) (> arg8 0)) (> arg6P arg6)) (< arg6 arg4)) (> arg5 0)) (> arg4 0)) (< x503 arg7P)) (< x503 arg7)) (> x503 (- 1))) (< arg8P arg8)) (< x503 arg8P)) (>= arg3 arg2)) (> arg1 2)) (> arg1P 0)) (= (+ arg2 1) arg2P)) (= arg3 arg3P)) (= arg4 arg4P)) (= arg5 arg5P))))
    (cfg_trans2 pc f2655_0_entry_GT pc1 f2655_0_entry_GT (exists ((x513 Int)) (and (and (and (and (and (and (and (and (and (and (and (and (and (and (and (< arg8P arg4) (> arg4 (- 1))) (< x513 arg5)) (> arg5 (- 1))) (>= arg3 arg2)) (> x513 0)) (> arg8P 0)) (> arg1 1)) (> arg1P 0)) (= arg4 arg7)) (= (+ arg2 1) arg2P)) (= arg3 arg3P)) (= 0 arg4P)) (= 0 arg5P)) (= 1 arg6P)) (= 0 arg7P))))
    (cfg_trans2 pc f2655_0_entry_GT pc1 f2655_0_entry_GT (exists ((x524 Int)) (and (and (and (and (and (and (and (and (and (and (and (and (and (< arg8P arg4) (> arg4 (- 1))) (< x524 arg5)) (> arg5 (- 1))) (> arg8P 0)) (>= arg3 arg2)) (> arg1 1)) (> arg1P 0)) (= arg4 arg7)) (= (+ arg2 1) arg2P)) (= arg3 arg3P)) (= 1 arg5P)) (= 1 arg6P)) (= 0 arg7P))))
    (cfg_trans2 pc f2655_0_entry_GT pc1 f2655_0_entry_GT (exists ((x534 Int) (x535 Int)) (and (and (and (and (and (and (and (and (and (and (and (and (and (and (< x534 arg4) (> arg4 (- 1))) (< x535 arg5)) (> arg5 (- 1))) (> x535 0)) (>= arg3 arg2)) (> arg1 1)) (> arg1P 2)) (= arg4 arg7)) (= (+ arg2 1) arg2P)) (= arg3 arg3P)) (= 1 arg4P)) (= 1 arg6P)) (= 1 arg7P)) (= 1 arg8P))))
    (cfg_trans2 pc f2655_0_entry_GT pc1 f2655_0_entry_GT (exists ((x544 Int) (x545 Int)) (and (and (and (and (and (and (and (and (and (and (and (and (and (and (and (< x544 arg4) (> arg4 (- 1))) (< x545 arg5)) (>= arg3 arg2)) (> arg5 (- 1))) (<= (- arg1P 1) arg1)) (> arg1 1)) (> arg1P 2)) (= arg4 arg7)) (= (+ arg2 1) arg2P)) (= arg3 arg3P)) (= 1 arg4P)) (= 1 arg5P)) (= 1 arg6P)) (= 1 arg7P)) (= 1 arg8P))))
    (cfg_trans2 pc f2655_0_entry_GT pc1 f2960_0_remove_FieldAccess (exists ((x560 Int)) (and (and (and (and (and (and (and (and (and (and (and (and (and (and (> arg8 0) (> arg7 0)) (> arg5 0)) (> arg4 0)) (> arg6 0)) (< arg4P arg7)) (< x560 arg8)) (< arg3 arg2)) (<= arg1P arg1)) (> arg1 2)) (> arg1P 2)) (> arg2P 0)) (<= (+ arg6P 3) arg1)) (<= (+ arg5P 2) arg1)) (= arg5 arg3P))))
    (cfg_trans2 pc f2960_0_remove_FieldAccess pc1 f3064_0_remove_FieldAccess (and (and (and (and (and (and (and (and (and (and (and (and (and (<= (+ arg1P 2) arg1) (> arg3 0)) (<= arg1P arg2)) (> arg1 2)) (> arg2 0)) (> arg1P 0)) (> arg2P 6)) (> arg3P 4)) (> arg4P 0)) (> arg5P 2)) (<= (+ arg5 2) arg1)) (<= (+ arg6 3) arg1)) (<= (+ arg7 2) arg2)) (= arg3 arg6P)))
    (cfg_trans2 pc f2960_0_remove_FieldAccess pc1 f3154_0_remove_FieldAccess (exists ((x587 Int) (x586 Int) (x589 Int) (x588 Int) (x590 Int)) (and (and (and (and (and (and (and (and (and (and (and (and (and (and (and (and (and (and (and (< x587 x586) (> x586 (- 1))) (< x589 x588)) (> x588 (- 1))) (> x590 arg4P)) (> x590 (- 1))) (< arg4P arg4)) (> arg4 (- 1))) (<= (+ arg1P 2) arg1)) (<= (+ arg1P 2) arg2)) (> arg1 2)) (> arg2 2)) (> arg1P 0)) (> arg2P 9)) (> arg3P 4)) (<= (+ arg5 2) arg1)) (<= (+ arg6 3) arg1)) (<= (+ arg6 3) arg2)) (<= (+ arg5 2) arg2)) (= arg5 arg7))))
    (cfg_trans2 pc f2960_0_remove_FieldAccess pc1 f3154_0_remove_FieldAccess (exists ((x604 Int) (x603 Int) (x606 Int) (x605 Int) (x607 Int) (x608 Int)) (and (and (and (and (and (and (and (and (and (and (and (and (and (and (and (and (and (and (and (and (< x604 x603) (> x603 (- 1))) (< x606 x605)) (> x605 (- 1))) (> x607 arg4P)) (> x607 (- 1))) (> arg4 (- 1))) (> x608 0)) (< arg4P arg4)) (<= (+ arg1P 2) arg1)) (<= (+ arg1P 2) arg2)) (> arg1 2)) (> arg2 2)) (> arg1P 0)) (> arg2P 9)) (> arg3P 4)) (<= (+ arg5 2) arg1)) (<= (+ arg6 3) arg1)) (<= (+ arg6 3) arg2)) (<= (+ arg5 2) arg2)) (= arg5 arg7))))
    (cfg_trans2 pc f1_0_main_Load pc1 f411_0_createList_Load (and (and (and (and (and (and (and (> arg1P (- 1)) (> arg2 0)) (<= (- arg2P 7) arg1)) (> arg1 0)) (> arg2P 7)) (= 1 arg5P)) (= 0 arg6P)) (= 0 arg7P)))
    (cfg_trans2 pc f822_0_createList_Load pc1 f2122_0_createList_LE (and (and (and (and (and (and (and (and (and (and (and (and (and (and (and (and (and (and (and (and (and (and (and (and (and (> arg2 11) (> arg1P 11)) (<= (+ arg20 5) arg2)) (<= (+ arg21 9) arg2)) (<= (+ arg22 9) arg2)) (<= (+ arg23 3) arg2)) (= arg1 arg2P)) (= arg13 arg3P)) (= arg11 arg4P)) (= arg7 arg5P)) (= arg12 arg6P)) (= arg6 arg7P)) (= arg3 arg9P)) (= arg14 arg10P)) (= arg5 arg11P)) (= 0 arg12P)) (= arg4 arg13P)) (= arg8 arg14P)) (= arg9 arg15P)) (= arg10 arg16P)) (= arg15 arg17P)) (= arg16 arg18P)) (= arg17 arg19P)) (= arg19 arg20P)) (= arg20 arg21P)) (= arg23 arg25P)))
    (cfg_trans2 pc f2122_0_createList_LE pc1 f2122_0_createList_LE (exists ((x643 Int) (x684 Int)) (and (and (and (and (and (and (and (and (and (and (and (and (and (and (and (and (and (and (and (and (and (and (and (and (and (and (and (and (and (and (and (and (and (and (and (and (and (and (> arg2 0) (> x643 (- 1))) (> arg6 0)) (> arg3 0)) (> arg20 (- 1))) (< arg20 x643)) (> arg10 0)) (> arg4 0)) (> arg13 0)) (> arg11 0)) (> arg12 0)) (> x684 (- 1))) (> arg9 0)) (> arg5 0)) (> arg18 0)) (> arg14 0)) (> arg19 0)) (> arg17 0)) (> arg15 0)) (> arg16 0)) (> arg25 (- 1))) (> arg21 (- 1))) (> arg1 9)) (> arg1P 9)) (<= (+ arg21 5) arg1)) (<= (+ arg22 9) arg1)) (<= (+ arg23 9) arg1)) (<= (+ arg25 3) arg1)) (<= (+ arg24 9) arg1)) (= (- arg2 1) arg2P)) (= arg3 arg3P)) (= arg6 arg6P)) (= arg7 arg7P)) (= arg8 arg8P)) (= arg10 arg10P)) (= arg12 arg12P)) (= (+ arg20 1) arg20P)) (= (+ arg21 1) arg21P)) (= (+ arg25 1) arg25P))))
    (cfg_trans2 pc f2122_0_createList_LE pc1 f2122_0_createList_LE (exists ((x685 Int) (x720 Int)) (and (and (and (and (and (and (and (and (and (and (and (and (and (and (and (and (and (and (and (and (and (and (and (and (and (and (and (and (and (and (and (and (and (and (and (and (and (> arg2 0) (> x685 (- 1))) (> arg6 0)) (> arg3 0)) (> arg20 (- 1))) (< arg20 x685)) (> arg10 0)) (> arg12 0)) (> x720 (- 1))) (> arg18 0)) (> arg19 0)) (> arg17 0)) (> arg8 0)) (> arg25 (- 1))) (> arg21 (- 1))) (> arg1 11)) (> arg1P 13)) (<= (+ arg21 5) arg1)) (<= (+ arg22 9) arg1)) (<= (+ arg23 9) arg1)) (<= (+ arg24 9) arg1)) (<= (+ arg25 3) arg1)) (= arg8 arg9)) (= arg10 arg11)) (= arg12 arg13)) (= arg7 arg16)) (= (- arg2 1) arg2P)) (= 0 arg3P)) (= 1 arg4P)) (= 1 arg5P)) (= arg8 arg8P)) (= arg10 arg10P)) (= arg12 arg12P)) (= 0 arg13P)) (= 2 arg15P)) (= (+ arg20 1) arg20P)) (= (+ arg21 1) arg21P)) (= (+ arg25 1) arg25P))))
    (cfg_trans2 pc __init pc1 f1_0_main_Load true)
  )
)
